NAME : problems/40-tsp/instance-31.tsp
COMMENT : No Comment
TYPE : TSP
DIMENSION: 40
EDGE_WEIGHT_TYPE : EUC_2D
NODE_COORD_SECTION
1 4389 4874 
2 9018 4692 
3 3526 2813 
4 4735 425 
5 4628 1909 
6 2575 6851 
7 4140 9107 
8 4670 2899 
9 6404 3361 
10 1041 3666 
11 1588 6581 
12 8874 9165 
13 7077 5389 
14 2330 1506 
15 835 5896 
16 688 7542 
17 6944 2314 
18 6202 6186 
19 1002 7613 
20 9333 6055 
21 4576 1206 
22 7247 8375 
23 9259 5893 
24 1755 9350 
25 2885 3475 
26 4297 7882 
27 5645 6428 
28 8512 3344 
29 295 560 
30 6827 1876 
31 7847 151 
32 2036 3097 
33 8446 7190 
34 2434 3799 
35 2136 1166 
36 1136 7573 
37 5297 4441 
38 4490 1088 
39 192 7267 
40 4376 4373 
EOF
